n = 100;
C = 488;
w = [621,666,378,708,269,162,257,109,384,941,695,78,694,374,84,846,98,640,583,24,780,93,249,882,96,672,679,943,324,532,197,597,909,947,54,815,635,528,740,956,824,389,150,598,709,22,845,148,821,420,343,792,480,843,108,298,754,668,803,227,297,116,166,19,666,450,522,772,565,973,248,517,668,180,782,584,832,108,47,907,180,686,111,283,432,111,272,860,184,86,983,898,194,321,824,612,628,800,78,420];
p = [522,710,299,764,273,75,215,74,415,848,699,51,756,297,3,882,184,561,492,42,805,114,178,966,35,695,715,953,251,595,204,692,989,880,113,747,707,587,661,937,772,387,96,593,739,119,861,228,887,325,441,718,410,893,192,347,748,756,840,235,254,179,254,75,568,502,430,741,516,959,308,604,721,154,749,562,794,39,39,937,126,677,198,359,454,91,311,771,85,53,1061,938,96,285,768,535,555,825,34,395];
